p tdp 20 39
1 8
1 16
2 4
2 10
2 19
2 20
3 14
3 18
4 15
4 16
4 17
5 12
5 15
5 17
5 18
6 7
6 17
7 8
7 12
7 17
8 18
9 10
9 12
9 13
9 17
9 19
10 15
10 16
11 15
11 16
11 19
12 13
12 19
13 14
14 16
16 17
16 20
17 19
19 20
